<instance format="XCSP3" type="CSP">
  <variables>
    <array id="x" size="[294]"> 0 1 </array>
  </variables>
  <constraints>
    <group>
      <sum>
        <list> %... </list>
        <coeffs> -1 1 1 1 1 1 1 1 </coeffs>
        <condition> (ge,0) </condition>
      </sum>
      <args> x[121] x[259..265] </args>
      <args> x[80] x[266..272] </args>
      <args> x[127] x[203..209] </args>
      <args> x[81] x[273..279] </args>
      <args> x[103] x[231..237] </args>
      <args> x[109] x[273..279] </args>
      <args> x[166] x[280..286] </args>
      <args> x[179] x[273..279] </args>
      <args> x[28] x[196..202] </args>
      <args> x[118] x[238..244] </args>
      <args> x[14] x[196..202] </args>
      <args> x[142] x[210..216] </args>
      <args> x[74] x[224..230] </args>
      <args> x[88] x[224..230] </args>
      <args> x[65] x[259..265] </args>
      <args> x[178] x[266..272] </args>
      <args> x[175] x[245..251] </args>
      <args> x[97] x[287..293] </args>
      <args> x[19] x[231..237] </args>
      <args> x[20] x[238..244] </args>
      <args> x[92] x[252..258] </args>
      <args> x[108] x[266..272] </args>
      <args> x[107] x[259..265] </args>
      <args> x[147] x[245..251] </args>
      <args> x[39] x[273..279] </args>
      <args> x[149] x[259..265] </args>
      <args> x[100] x[210..216] </args>
      <args> x[90] x[238..244] </args>
      <args> x[55] x[287..293] </args>
      <args> x[62] x[238..244] </args>
      <args> x[30] x[210..216] </args>
      <args> x[66] x[266..272] </args>
      <args> x[94] x[266..272] </args>
      <args> x[151] x[273..279] </args>
      <args> x[33] x[231..237] </args>
      <args> x[115] x[217..223] </args>
      <args> x[111] x[287..293] </args>
      <args> x[131] x[231..237] </args>
      <args> x[132] x[238..244] </args>
      <args> x[160] x[238..244] </args>
      <args> x[17] x[217..223] </args>
      <args> x[82] x[280..286] </args>
      <args> x[170] x[210..216] </args>
      <args> x[12] x[280..286] </args>
      <args> x[41] x[287..293] </args>
      <args> x[186] x[224..230] </args>
      <args> x[122] x[266..272] </args>
      <args> x[11] x[273..279] </args>
      <args> x[22] x[252..258] </args>
      <args> x[136] x[266..272] </args>
      <args> x[46] x[224..230] </args>
      <args> x[85] x[203..209] </args>
      <args> x[189] x[245..251] </args>
      <args> x[156] x[210..216] </args>
      <args> x[154] x[196..202] </args>
      <args> x[67] x[273..279] </args>
      <args> x[72] x[210..216] </args>
      <args> x[89] x[231..237] </args>
      <args> x[112] x[196..202] </args>
      <args> x[119] x[245..251] </args>
      <args> x[15] x[203..209] </args>
      <args> x[16] x[210..216] </args>
      <args> x[126] x[196..202] </args>
      <args> x[64] x[252..258] </args>
      <args> x[168] x[196..202] </args>
      <args> x[145] x[231..237] </args>
      <args> x[24] x[266..272] </args>
      <args> x[51] x[259..265] </args>
      <args> x[148] x[252..258] </args>
      <args> x[167] x[287..293] </args>
      <args> x[32] x[224..230] </args>
      <args> x[13] x[287..293] </args>
      <args> x[38] x[266..272] </args>
      <args> x[25] x[273..279] </args>
      <args> x[113] x[203..209] </args>
      <args> x[158] x[224..230] </args>
      <args> x[116] x[224..230] </args>
      <args> x[133] x[245..251] </args>
      <args> x[173] x[231..237] </args>
      <args> x[43] x[203..209] </args>
      <args> x[195] x[287..293] </args>
      <args> x[183] x[203..209] </args>
      <args> x[95] x[273..279] </args>
      <args> x[45] x[217..223] </args>
      <args> x[26] x[280..286] </args>
      <args> x[3] x[217..223] </args>
      <args> x[78] x[252..258] </args>
      <args> x[60] x[224..230] </args>
      <args> x[48] x[238..244] </args>
      <args> x[40] x[280..286] </args>
      <args> x[105] x[245..251] </args>
      <args> x[140] x[196..202] </args>
      <args> x[188] x[238..244] </args>
      <args> x[35] x[245..251] </args>
      <args> x[191] x[259..265] </args>
      <args> x[101] x[217..223] </args>
      <args> x[110] x[280..286] </args>
      <args> x[184] x[210..216] </args>
      <args> x[177] x[259..265] </args>
      <args> x[8] x[252..258] </args>
      <args> x[73] x[217..223] </args>
      <args> x[99] x[203..209] </args>
      <args> x[123] x[273..279] </args>
      <args> x[23] x[259..265] </args>
      <args> x[93] x[259..265] </args>
      <args> x[104] x[238..244] </args>
      <args> x[144] x[224..230] </args>
      <args> x[76] x[238..244] </args>
      <args> x[44] x[210..216] </args>
      <args> x[36] x[252..258] </args>
      <args> x[18] x[224..230] </args>
      <args> x[171] x[217..223] </args>
      <args> x[159] x[231..237] </args>
      <args> x[163] x[259..265] </args>
      <args> x[162] x[252..258] </args>
      <args> x[181] x[287..293] </args>
      <args> x[172] x[224..230] </args>
      <args> x[57] x[203..209] </args>
      <args> x[61] x[231..237] </args>
      <args> x[139] x[287..293] </args>
      <args> x[70] x[196..202] </args>
      <args> x[130] x[224..230] </args>
      <args> x[150] x[266..272] </args>
      <args> x[0] x[196..202] </args>
      <args> x[91] x[245..251] </args>
      <args> x[63] x[245..251] </args>
      <args> x[164] x[266..272] </args>
      <args> x[50] x[252..258] </args>
      <args> x[79] x[259..265] </args>
      <args> x[161] x[245..251] </args>
      <args> x[153] x[287..293] </args>
      <args> x[37] x[259..265] </args>
      <args> x[157] x[217..223] </args>
      <args> x[53] x[273..279] </args>
      <args> x[56] x[196..202] </args>
      <args> x[2] x[210..216] </args>
      <args> x[54] x[280..286] </args>
      <args> x[42] x[196..202] </args>
      <args> x[124] x[280..286] </args>
      <args> x[47] x[231..237] </args>
      <args> x[143] x[217..223] </args>
      <args> x[21] x[245..251] </args>
      <args> x[96] x[280..286] </args>
      <args> x[192] x[266..272] </args>
      <args> x[187] x[231..237] </args>
      <args> x[114] x[210..216] </args>
      <args> x[129] x[217..223] </args>
      <args> x[165] x[273..279] </args>
      <args> x[68] x[280..286] </args>
      <args> x[190] x[252..258] </args>
      <args> x[6] x[238..244] </args>
      <args> x[87] x[217..223] </args>
      <args> x[4] x[224..230] </args>
      <args> x[155] x[203..209] </args>
      <args> x[106] x[252..258] </args>
      <args> x[134] x[252..258] </args>
      <args> x[77] x[245..251] </args>
      <args> x[52] x[266..272] </args>
      <args> x[135] x[259..265] </args>
      <args> x[176] x[252..258] </args>
      <args> x[31] x[217..223] </args>
      <args> x[128] x[210..216] </args>
      <args> x[169] x[203..209] </args>
      <args> x[141] x[203..209] </args>
      <args> x[5] x[231..237] </args>
      <args> x[58] x[210..216] </args>
      <args> x[117] x[231..237] </args>
      <args> x[137] x[273..279] </args>
      <args> x[174] x[238..244] </args>
      <args> x[146] x[238..244] </args>
      <args> x[185] x[217..223] </args>
      <args> x[71] x[203..209] </args>
      <args> x[75] x[231..237] </args>
      <args> x[27] x[287..293] </args>
      <args> x[84] x[196..202] </args>
      <args> x[193] x[273..279] </args>
      <args> x[138] x[280..286] </args>
      <args> x[9] x[259..265] </args>
      <args> x[83] x[287..293] </args>
      <args> x[59] x[217..223] </args>
      <args> x[49] x[245..251] </args>
      <args> x[7] x[245..251] </args>
      <args> x[194] x[280..286] </args>
      <args> x[29] x[203..209] </args>
      <args> x[34] x[238..244] </args>
      <args> x[69] x[287..293] </args>
      <args> x[98] x[196..202] </args>
      <args> x[182] x[196..202] </args>
      <args> x[1] x[203..209] </args>
      <args> x[180] x[280..286] </args>
      <args> x[152] x[280..286] </args>
      <args> x[10] x[266..272] </args>
      <args> x[102] x[224..230] </args>
      <args> x[86] x[210..216] </args>
      <args> x[125] x[287..293] </args>
      <args> x[120] x[252..258] </args>
    </group>
    <group>
      <sum>
        <list> %... </list>
        <condition> (ge,1) </condition>
      </sum>
      <args> x[154..167] </args>
      <args> x[112..125] </args>
      <args> x[28..41] </args>
      <args> x[140..153] </args>
      <args> x[98..111] </args>
      <args> x[126..139] </args>
      <args> x[182..195] </args>
      <args> x[14..27] </args>
      <args> x[168..181] </args>
      <args> x[56..69] </args>
      <args> x[70..83] </args>
      <args> x[0..13] </args>
      <args> x[42..55] </args>
      <args> x[84..97] </args>
    </group>
    <group>
      <sum>
        <list> %... </list>
        <coeffs> -1 -1 -1 -1 -1 -1 -1 -1 -1 -1 -1 -1 -1 -1 </coeffs>
        <condition> (ge,-1) </condition>
      </sum>
      <args> x[0] x[14] x[28] x[42] x[56] x[70] x[84] x[98] x[112] x[126] x[140] x[154] x[168] x[182] </args>
      <args> x[1] x[15] x[29] x[43] x[57] x[71] x[85] x[99] x[113] x[127] x[141] x[155] x[169] x[183] </args>
      <args> x[2] x[16] x[30] x[44] x[58] x[72] x[86] x[100] x[114] x[128] x[142] x[156] x[170] x[184] </args>
      <args> x[3] x[17] x[31] x[45] x[59] x[73] x[87] x[101] x[115] x[129] x[143] x[157] x[171] x[185] </args>
      <args> x[4] x[18] x[32] x[46] x[60] x[74] x[88] x[102] x[116] x[130] x[144] x[158] x[172] x[186] </args>
      <args> x[5] x[19] x[33] x[47] x[61] x[75] x[89] x[103] x[117] x[131] x[145] x[159] x[173] x[187] </args>
      <args> x[6] x[20] x[34] x[48] x[62] x[76] x[90] x[104] x[118] x[132] x[146] x[160] x[174] x[188] </args>
      <args> x[7] x[21] x[35] x[49] x[63] x[77] x[91] x[105] x[119] x[133] x[147] x[161] x[175] x[189] </args>
      <args> x[8] x[22] x[36] x[50] x[64] x[78] x[92] x[106] x[120] x[134] x[148] x[162] x[176] x[190] </args>
      <args> x[9] x[23] x[37] x[51] x[65] x[79] x[93] x[107] x[121] x[135] x[149] x[163] x[177] x[191] </args>
      <args> x[10] x[24] x[38] x[52] x[66] x[80] x[94] x[108] x[122] x[136] x[150] x[164] x[178] x[192] </args>
      <args> x[11] x[25] x[39] x[53] x[67] x[81] x[95] x[109] x[123] x[137] x[151] x[165] x[179] x[193] </args>
      <args> x[12] x[26] x[40] x[54] x[68] x[82] x[96] x[110] x[124] x[138] x[152] x[166] x[180] x[194] </args>
      <args> x[13] x[27] x[41] x[55] x[69] x[83] x[97] x[111] x[125] x[139] x[153] x[167] x[181] x[195] </args>
    </group>
    <group>
      <sum>
        <list> %... </list>
        <coeffs> -1 -1 -1 -1 -1 -1 -1 </coeffs>
        <condition> (ge,-1) </condition>
      </sum>
      <args> x[196] x[203] x[210] x[217] x[224] x[231] x[238] </args>
      <args> x[197] x[204] x[211] x[218] x[225] x[232] x[239] </args>
      <args> x[198] x[205] x[212] x[219] x[226] x[233] x[240] </args>
      <args> x[199] x[206] x[213] x[220] x[227] x[234] x[241] </args>
      <args> x[200] x[207] x[214] x[221] x[228] x[235] x[242] </args>
      <args> x[201] x[208] x[215] x[222] x[229] x[236] x[243] </args>
      <args> x[202] x[209] x[216] x[223] x[230] x[237] x[244] </args>
      <args> x[245] x[252] x[259] x[266] x[273] x[280] x[287] </args>
      <args> x[246] x[253] x[260] x[267] x[274] x[281] x[288] </args>
      <args> x[247] x[254] x[261] x[268] x[275] x[282] x[289] </args>
      <args> x[248] x[255] x[262] x[269] x[276] x[283] x[290] </args>
      <args> x[249] x[256] x[263] x[270] x[277] x[284] x[291] </args>
      <args> x[250] x[257] x[264] x[271] x[278] x[285] x[292] </args>
      <args> x[251] x[258] x[265] x[272] x[279] x[286] x[293] </args>
    </group>
  </constraints>
</instance>

